NAME: random_70_4
TYPE: TSP
COMMENT: random_70_4
DIMENSION: 70
EDGE_WEIGHT_TYPE: EUC_2D
NODE_COORD_SECTION
1 291 387
2 35 365
3 197 463
4 336 338
5 182 398
6 397 461
7 377 304
8 96 49
9 76 443
10 118 285
11 106 372
12 51 131
13 278 462
14 45 274
15 0 485
16 118 114
17 456 72
18 278 78
19 327 288
20 3 139
21 498 446
22 193 262
23 265 115
24 28 456
25 360 50
26 230 319
27 310 287
28 217 72
29 196 124
30 273 176
31 45 256
32 262 64
33 57 388
34 157 440
35 184 256
36 307 294
37 161 435
38 330 181
39 294 73
40 168 190
41 304 242
42 88 343
43 65 235
44 421 50
45 248 432
46 291 349
47 133 41
48 48 485
49 376 275
50 352 260
51 352 46
52 418 489
53 171 185
54 25 196
55 75 120
56 169 248
57 331 343
58 219 104
59 384 395
60 0 10
61 214 33
62 296 94
63 214 343
64 320 56
65 396 205
66 26 224
67 334 367
68 142 8
69 469 271
70 302 59
